%nprocshared=23
%mem=40GB
%chk=SFG_4_endo_b3lyp631plusgdp_1_nqcc.chk
# nmr=(giao,spinspin) rb3lyp/6-31g(df,3p) output=pickett

Title Card Required

0 1
 C                 -2.92231700   -0.51329800   -1.22894500
 C                 -2.14247700   -1.77945700   -0.89467300
 C                 -2.22033800   -1.94694600    0.43795800
 C                 -3.05160000   -0.79163100    0.98235400
 C                 -0.94691500    0.63127100    1.31286300
 C                 -0.81203700    0.91347600   -0.96339400
 H(Iso=2, spin=2)  -3.17718900   -0.30894600   -2.26529500
 H                 -1.55008800   -2.34613300   -1.60317000
 H                 -1.70510100   -2.67939900    1.04802500
 H(Iso=2, spin=2)  -3.42633900   -0.84474200    2.00093800
 C                 -4.05134400   -0.56859600   -0.17498800
 O                 -0.61649200    0.50857100    2.48481800
 O                 -0.36356900    1.05962300   -2.09260000
 N                 -2.22354200    0.45998900    0.78715700
 N                 -2.14026200    0.63959500   -0.63852300
 N                 -0.13405600    1.03638800    0.25062000
 H                 -4.71235400   -1.42212400   -0.32101800
 H                 -4.62116400    0.35948800   -0.09125600
 C                  1.27681100    1.44730600    0.45696800
 H                  1.31801800    1.64830900    1.53022100
 C                  1.59052300    2.75099200   -0.28854600
 H                  0.87872300    3.53138200   -0.00245300
 H                  2.59512400    3.08235900   -0.01141600
 H                  1.55276000    2.62387800   -1.37145500
 C                  2.25492100    0.31015300    0.17241200
 C                  2.53007200   -0.12670900   -1.13336400
 C                  2.91403900   -0.30969000    1.24355700
 C                  3.43964900   -1.16353800   -1.35669200
 H                  2.02261400    0.33535100   -1.97343100
 C                  3.82751800   -1.34536700    1.02136700
 H                  2.71169300    0.01859200    2.25971100
 C                  4.09197800   -1.77621600   -0.28113500
 H                  3.63964200   -1.49242300   -2.37262100
 H                  4.32852400   -1.81251100    1.86437700
 H                  4.79974400   -2.58093500   -0.45813000

